NAME          COPTPROB
OBJSENSE
  MIN
ROWS
 N  __OBJ___
 L  C0      
 L  C6      
 L  C7      
 L  C9      
 L  C16     
 L  C20     
 L  C21     
 L  C22     
 L  C33     
 L  C35     
 L  C37     
 L  C38     
 L  C42     
 L  C43     
 L  C44     
 L  C46     
 L  C47     
 L  C48     
 L  C55     
 L  C58     
 L  C60     
 L  C62     
 L  C65     
 L  C68     
 L  C78     
 L  C79     
 L  C80     
 L  C86     
 L  C87     
 L  C96     
 L  C98     
 L  C99     
 L  C100    
 L  C106    
 L  C108    
 L  C111    
 L  C112    
 L  C115    
 L  C119    
 L  C130    
 L  C131    
 L  C133    
 L  C134    
 L  C135    
 L  C147    
 L  C148    
 L  C153    
 L  C161    
 L  C164    
 L  C168    
 L  C173    
 L  C176    
 L  C178    
 L  C180    
 L  C185    
 L  C190    
 L  C197    
 L  C199    
 L  C207    
 L  C209    
 L  C214    
 L  C218    
 L  C220    
 L  C221    
 L  C222    
 L  C223    
 L  C225    
 L  C229    
 L  C231    
 L  C235    
 L  C240    
 L  C244    
 L  C250    
 L  C252    
 L  C253    
 L  C255    
 L  C256    
 L  C260    
 L  C264    
 L  C265    
 L  C267    
 L  C273    
 L  C274    
 L  C275    
 L  C277    
 L  C278    
 L  C279    
 L  C292    
 L  C296    
 L  C301    
 L  C304    
 L  C305    
 L  C307    
 L  C314    
 L  C315    
 L  C316    
 L  C321    
 L  C322    
 L  C334    
 L  C338    
 L  C339    
 L  C340    
 L  C341    
 L  C345    
 L  C351    
 L  C352    
 L  C353    
 L  C355    
 L  C356    
 L  C360    
 L  C361    
 L  C364    
 L  C365    
 L  C367    
 L  C368    
 L  C370    
 L  C371    
 L  C372    
 L  C375    
 L  C376    
 L  C378    
 L  C380    
 L  C382    
 L  C384    
 L  C387    
 L  C391    
 L  C393    
COLUMNS
    MARKER    'MARKER'                 'INTORG'
    x1        __OBJ___  862
    x1        C35       -1
    x1        C164      -1
    x1        C372      -1
    x2        __OBJ___  763
    x2        C131      -1
    x2        C207      -1
    x2        C353      -1
    x2        C356      -1
    x3        __OBJ___  105
    x3        C21       -1
    x3        C130      -1
    x3        C264      -1
    x4        __OBJ___  738
    x4        C58       -1
    x4        C273      -1
    x4        C304      -1
    x7        __OBJ___  384
    x7        C43       -1
    x7        C62       -1
    x7        C133      -1
    x8        __OBJ___  282
    x8        C9        -1
    x8        C199      -1
    x10       __OBJ___  597
    x10       C16       -1
    x10       C221      -1
    x14       __OBJ___  521
    x14       C38       -1
    x14       C147      -1
    x14       C197      -1
    x14       C220      -1
    x15       __OBJ___  804
    x15       C22       -1
    x15       C55       -1
    x15       C364      -1
    x20       __OBJ___  435
    x20       C119      -1
    x20       C352      -1
    x20       C370      -1
    x20       C376      -1
    x20       C391      -1
    x22       __OBJ___  358
    x22       C78       -1
    x22       C153      -1
    x22       C279      -1
    x23       __OBJ___  651
    x23       C6        -1
    x23       C47       -1
    x23       C222      -1
    x23       C307      -1
    x26       __OBJ___  513
    x26       C301      -1
    x26       C334      -1
    x29       __OBJ___  353
    x29       C20       -1
    x29       C108      -1
    x29       C185      -1
    x29       C231      -1
    x29       C378      -1
    x30       __OBJ___  764
    x30       C48       -1
    x30       C111      -1
    x30       C267      -1
    x32       __OBJ___  218
    x32       C225      -1
    x32       C322      -1
    x32       C371      -1
    x32       C380      -1
    x34       __OBJ___  263
    x34       C7        -1
    x34       C99       -1
    x34       C250      -1
    x43       __OBJ___  154
    x43       C256      -1
    x43       C296      -1
    x43       C382      -1
    x45       __OBJ___  547
    x45       C277      -1
    x45       C361      -1
    x46       __OBJ___  506
    x46       C180      -1
    x46       C229      -1
    x48       __OBJ___  954
    x48       C134      -1
    x48       C161      -1
    x48       C265      -1
    x48       C292      -1
    x48       C305      -1
    x52       __OBJ___  330
    x52       C65       -1
    x52       C79       -1
    x59       __OBJ___  218
    x59       C60       -1
    x59       C223      -1
    x59       C341      -1
    x63       __OBJ___  448
    x63       C168      -1
    x63       C235      -1
    x63       C240      -1
    x63       C387      -1
    x67       __OBJ___  176
    x67       C315      -1
    x67       C375      -1
    x68       __OBJ___  373
    x68       C173      -1
    x68       C218      -1
    x68       C355      -1
    x70       __OBJ___  552
    x70       C148      -1
    x70       C275      -1
    x80       __OBJ___  339
    x80       C96       -1
    x80       C316      -1
    x84       __OBJ___  354
    x84       C33       -1
    x84       C214      -1
    x84       C367      -1
    x88       __OBJ___  657
    x88       C80       -1
    x88       C190      -1
    x88       C260      -1
    x88       C393      -1
    x91       __OBJ___  842
    x91       C44       -1
    x91       C178      -1
    x91       C209      -1
    x92       __OBJ___  565
    x92       C314      -1
    x92       C365      -1
    x96       __OBJ___  557
    x96       C87       -1
    x96       C115      -1
    x96       C351      -1
    x100      __OBJ___  365
    x100      C37       -1
    x100      C86       -1
    x100      C98       -1
    x100      C244      -1
    x100      C253      -1
    x102      __OBJ___  199
    x102      C6        -1
    x102      C176      -1
    x102      C274      -1
    x102      C315      -1
    x102      C376      -1
    x105      __OBJ___  481
    x105      C42       -1
    x105      C209      -1
    x105      C274      -1
    x105      C314      -1
    x105      C339      -1
    x105      C393      -1
    x106      __OBJ___  975
    x106      C22       -1
    x106      C197      -1
    x106      C274      -1
    x106      C352      -1
    x109      __OBJ___  47
    x109      C112      -1
    x109      C345      -1
    x110      __OBJ___  787
    x110      C48       -1
    x110      C231      -1
    x110      C278      -1
    x118      __OBJ___  841
    x118      C161      -1
    x126      __OBJ___  211
    x126      C20       -1
    x126      C112      -1
    x126      C222      -1
    x126      C364      -1
    x128      __OBJ___  64
    x128      C235      -1
    x130      __OBJ___  745
    x130      C164      -1
    x130      C340      -1
    x130      C387      -1
    x135      __OBJ___  74
    x135      C147      -1
    x135      C340      -1
    x139      __OBJ___  350
    x139      C370      -1
    x139      C376      -1
    x145      __OBJ___  489
    x145      C180      -1
    x145      C240      -1
    x145      C278      -1
    x146      __OBJ___  570
    x146      C108      -1
    x146      C277      -1
    x152      __OBJ___  130
    x152      C218      -1
    x152      C292      -1
    x152      C391      -1
    x165      __OBJ___  20
    x165      C20       -1
    x165      C46       -1
    x165      C229      -1
    x168      __OBJ___  115
    x168      C98       -1
    x168      C305      -1
    x168      C307      -1
    x168      C340      -1
    x169      __OBJ___  316
    x169      C214      -1
    x169      C252      -1
    x172      __OBJ___  264
    x172      C367      -1
    x173      __OBJ___  737
    x173      C119      -1
    x173      C301      -1
    x176      __OBJ___  8
    x176      C22       -1
    x176      C307      -1
    x176      C316      -1
    x176      C338      -1
    x178      __OBJ___  335
    x178      C80       -1
    x181      __OBJ___  546
    x181      C106      -1
    x181      C355      -1
    x181      C370      -1
    x186      __OBJ___  4
    x186      C391      -1
    x187      __OBJ___  677
    x187      C16       -1
    x187      C322      -1
    x192      __OBJ___  219
    x192      C267      -1
    x192      C393      -1
    x196      __OBJ___  507
    x196      C87       -1
    x196      C148      -1
    x196      C365      -1
    x198      __OBJ___  551
    x198      C135      -1
    x198      C321      -1
    x198      C334      -1
    x199      __OBJ___  410
    x199      C43       -1
    x199      C279      -1
    x205      __OBJ___  361
    x205      C65       -1
    x205      C222      -1
    x205      C341      -1
    x206      __OBJ___  348
    x206      C133      -1
    x206      C345      -1
    x207      __OBJ___  634
    x207      C46       -1
    x207      C96       -1
    x207      C147      -1
    x207      C209      -1
    x211      __OBJ___  466
    x211      C60       -1
    x211      C225      -1
    x211      C355      -1
    x213      __OBJ___  229
    x213      C255      -1
    x213      C339      -1
    x215      __OBJ___  400
    x215      C35       -1
    x215      C255      -1
    x215      C368      -1
    x221      __OBJ___  958
    x221      C48       -1
    x221      C190      -1
    x223      __OBJ___  44
    x223      C176      -1
    x228      __OBJ___  441
    x228      C35       -1
    x228      C250      -1
    x228      C356      -1
    x228      C367      -1
    x231      __OBJ___  784
    x231      C38       -1
    x231      C44       -1
    x231      C47       -1
    x234      __OBJ___  86
    x234      C275      -1
    x234      C304      -1
    x236      __OBJ___  55
    x236      C38       -1
    x236      C79       -1
    x236      C173      -1
    x237      __OBJ___  512
    x237      C79       -1
    x237      C173      -1
    x237      C221      -1
    x239      __OBJ___  270
    x239      C42       -1
    x242      __OBJ___  110
    x242      C43       -1
    x242      C68       -1
    x242      C353      -1
    x245      __OBJ___  93
    x245      C223      -1
    x245      C240      -1
    x246      __OBJ___  90
    x246      C106      -1
    x246      C384      -1
    x250      __OBJ___  22
    x250      C0        -1
    x250      C7        -1
    x250      C100      -1
    x256      __OBJ___  101
    x256      C0        -1
    x256      C267      -1
    x256      C364      -1
    x258      __OBJ___  100
    x258      C58       -1
    x258      C78       -1
    x258      C223      -1
    x259      __OBJ___  636
    x259      C273      -1
    x259      C351      -1
    x262      __OBJ___  71
    x262      C244      -1
    x262      C384      -1
    x265      __OBJ___  443
    x265      C87       -1
    x265      C275      -1
    x265      C339      -1
    x266      __OBJ___  434
    x266      C356      -1
    x267      __OBJ___  401
    x267      C153      -1
    x267      C250      -1
    x269      __OBJ___  416
    x269      C334      -1
    x275      __OBJ___  781
    x275      C44       -1
    x275      C229      -1
    x275      C231      -1
    x275      C235      -1
    x279      __OBJ___  231
    x279      C351      -1
    x289      __OBJ___  222
    x289      C168      -1
    x289      C190      -1
    x289      C253      -1
    x292      __OBJ___  649
    x292      C43       -1
    x292      C115      -1
    x294      __OBJ___  828
    x294      C221      -1
    x294      C231      -1
    x294      C305      -1
    x301      __OBJ___  229
    x301      C21       -1
    x301      C339      -1
    x301      C360      -1
    x302      __OBJ___  76
    x302      C78       -1
    x302      C147      -1
    x303      __OBJ___  403
    x303      C78       -1
    x303      C133      -1
    x303      C264      -1
    x306      __OBJ___  917
    x306      C55       -1
    x306      C98       -1
    x306      C244      -1
    x307      __OBJ___  182
    x307      C99       -1
    x307      C371      -1
    x308      __OBJ___  739
    x308      C62       -1
    x308      C209      -1
    x310      __OBJ___  385
    x310      C6        -1
    x310      C47       -1
    x310      C96       -1
    x310      C207      -1
    x310      C225      -1
    x310      C339      -1
    x311      __OBJ___  730
    x311      C273      -1
    x311      C340      -1
    x311      C375      -1
    x313      __OBJ___  953
    x313      C55       -1
    x313      C80       -1
    x323      __OBJ___  248
    x323      C100      -1
    x323      C134      -1
    x329      __OBJ___  722
    x329      C185      -1
    x329      C341      -1
    x329      C345      -1
    x329      C352      -1
    x329      C391      -1
    x330      __OBJ___  128
    x330      C98       -1
    x330      C255      -1
    x332      __OBJ___  167
    x332      C130      -1
    x332      C371      -1
    x334      __OBJ___  342
    x334      C153      -1
    x334      C176      -1
    x338      __OBJ___  194
    x338      C250      -1
    x338      C353      -1
    x340      __OBJ___  134
    x340      C38       -1
    x340      C58       -1
    x340      C135      -1
    x340      C185      -1
    x340      C338      -1
    x341      __OBJ___  883
    x341      C161      -1
    x341      C223      -1
    x343      __OBJ___  24
    x343      C220      -1
    x343      C380      -1
    x348      __OBJ___  557
    x348      C168      -1
    x348      C180      -1
    x350      __OBJ___  932
    x350      C68       -1
    x350      C161      -1
    x350      C244      -1
    x352      __OBJ___  1
    x352      C360      -1
    x352      C376      -1
    x353      __OBJ___  273
    x353      C47       -1
    x353      C364      -1
    x353      C378      -1
    x356      __OBJ___  369
    x356      C252      -1
    x356      C365      -1
    x357      __OBJ___  184
    x357      C250      -1
    x357      C265      -1
    x358      __OBJ___  32
    x358      C199      -1
    x358      C376      -1
    x362      __OBJ___  194
    x362      C60       -1
    x362      C321      -1
    x364      __OBJ___  657
    x364      C9        -1
    x364      C106      -1
    x364      C148      -1
    x364      C360      -1
    x367      __OBJ___  446
    x367      C207      -1
    x367      C264      -1
    x370      __OBJ___  153
    x370      C37       -1
    x370      C176      -1
    x370      C316      -1
    x371      __OBJ___  26
    x371      C131      -1
    x371      C256      -1
    x373      __OBJ___  513
    x373      C33       -1
    x373      C260      -1
    x374      __OBJ___  963
    x374      C42       -1
    x374      C260      -1
    x374      C277      -1
    x376      __OBJ___  19
    x376      C229      -1
    x378      __OBJ___  591
    x378      C368      -1
    x378      C372      -1
    x386      __OBJ___  88
    x386      C296      -1
    x386      C384      -1
    x387      __OBJ___  208
    x387      C372      -1
    x390      __OBJ___  479
    x390      C98       -1
    x390      C178      -1
    x392      __OBJ___  252
    x392      C111      -1
    x392      C382      -1
    x397      __OBJ___  517
    x397      C100      -1
    x397      C207      -1
    x397      C225      -1
    x397      C380      -1
    x399      __OBJ___  383
    x399      C260      -1
    x399      C361      -1
    x400      __OBJ___  260
    x400      C20       -1
    x400      C86       -1
    x400      C256      -1
    x400      C364      -1
    MARKER    'MARKER'                 'INTEND'
RHS
    RHS       __OBJ___  -22406
    RHS       C0        -1
    RHS       C6        -1
    RHS       C7        -1
    RHS       C9        -1
    RHS       C16       -1
    RHS       C20       -1
    RHS       C21       -1
    RHS       C22       -1
    RHS       C33       -1
    RHS       C35       -1
    RHS       C37       -1
    RHS       C38       -1
    RHS       C42       -1
    RHS       C43       -1
    RHS       C44       -1
    RHS       C46       -1
    RHS       C47       -1
    RHS       C48       -1
    RHS       C55       -1
    RHS       C58       -1
    RHS       C60       -1
    RHS       C62       -1
    RHS       C65       -1
    RHS       C68       -1
    RHS       C78       -1
    RHS       C79       -1
    RHS       C80       -1
    RHS       C86       -1
    RHS       C87       -1
    RHS       C96       -1
    RHS       C98       -1
    RHS       C99       -1
    RHS       C100      -1
    RHS       C106      -1
    RHS       C108      -1
    RHS       C111      -1
    RHS       C112      -1
    RHS       C115      -1
    RHS       C119      -1
    RHS       C130      -1
    RHS       C131      -1
    RHS       C133      -1
    RHS       C134      -1
    RHS       C135      -1
    RHS       C147      -1
    RHS       C148      -1
    RHS       C153      -1
    RHS       C161      -1
    RHS       C164      -1
    RHS       C168      -1
    RHS       C173      -1
    RHS       C176      -1
    RHS       C178      -1
    RHS       C180      -1
    RHS       C185      -1
    RHS       C190      -1
    RHS       C197      -1
    RHS       C199      -1
    RHS       C207      -1
    RHS       C209      -1
    RHS       C214      -1
    RHS       C218      -1
    RHS       C220      -1
    RHS       C221      -1
    RHS       C222      -1
    RHS       C223      -1
    RHS       C225      -1
    RHS       C229      -1
    RHS       C231      -1
    RHS       C235      -1
    RHS       C240      -1
    RHS       C244      -1
    RHS       C250      -1
    RHS       C252      -1
    RHS       C253      -1
    RHS       C255      -1
    RHS       C256      -1
    RHS       C260      -1
    RHS       C264      -1
    RHS       C265      -1
    RHS       C267      -1
    RHS       C273      -1
    RHS       C274      -1
    RHS       C275      -1
    RHS       C277      -1
    RHS       C278      -1
    RHS       C279      -1
    RHS       C292      -1
    RHS       C296      -1
    RHS       C301      -1
    RHS       C304      -1
    RHS       C305      -1
    RHS       C307      -1
    RHS       C314      -1
    RHS       C315      -1
    RHS       C316      -1
    RHS       C321      -1
    RHS       C322      -1
    RHS       C334      -1
    RHS       C338      -1
    RHS       C339      -1
    RHS       C340      -1
    RHS       C341      -1
    RHS       C345      -1
    RHS       C351      -1
    RHS       C352      -1
    RHS       C353      -1
    RHS       C355      -1
    RHS       C356      -1
    RHS       C360      -1
    RHS       C361      -1
    RHS       C364      -1
    RHS       C365      -1
    RHS       C367      -1
    RHS       C368      -1
    RHS       C370      -1
    RHS       C371      -1
    RHS       C372      -1
    RHS       C375      -1
    RHS       C376      -1
    RHS       C378      -1
    RHS       C380      -1
    RHS       C382      -1
    RHS       C384      -1
    RHS       C387      -1
    RHS       C391      -1
    RHS       C393      -1
BOUNDS
 UP BOUND     x1        1
 UP BOUND     x2        1
 UP BOUND     x3        1
 UP BOUND     x4        1
 UP BOUND     x7        1
 UP BOUND     x8        1
 UP BOUND     x10       1
 UP BOUND     x14       1
 UP BOUND     x15       1
 UP BOUND     x20       1
 UP BOUND     x22       1
 UP BOUND     x23       1
 UP BOUND     x26       1
 UP BOUND     x29       1
 UP BOUND     x30       1
 UP BOUND     x32       1
 UP BOUND     x34       1
 UP BOUND     x43       1
 UP BOUND     x45       1
 UP BOUND     x46       1
 UP BOUND     x48       1
 UP BOUND     x52       1
 UP BOUND     x59       1
 UP BOUND     x63       1
 UP BOUND     x67       1
 UP BOUND     x68       1
 UP BOUND     x70       1
 UP BOUND     x80       1
 UP BOUND     x84       1
 UP BOUND     x88       1
 UP BOUND     x91       1
 UP BOUND     x92       1
 UP BOUND     x96       1
 UP BOUND     x100      1
 UP BOUND     x102      1
 UP BOUND     x105      1
 UP BOUND     x106      1
 UP BOUND     x109      1
 UP BOUND     x110      1
 UP BOUND     x118      1
 UP BOUND     x126      1
 UP BOUND     x128      1
 UP BOUND     x130      1
 UP BOUND     x135      1
 UP BOUND     x139      1
 UP BOUND     x145      1
 UP BOUND     x146      1
 UP BOUND     x152      1
 UP BOUND     x165      1
 UP BOUND     x168      1
 UP BOUND     x169      1
 UP BOUND     x172      1
 UP BOUND     x173      1
 UP BOUND     x176      1
 UP BOUND     x178      1
 UP BOUND     x181      1
 UP BOUND     x186      1
 UP BOUND     x187      1
 UP BOUND     x192      1
 UP BOUND     x196      1
 UP BOUND     x198      1
 UP BOUND     x199      1
 UP BOUND     x205      1
 UP BOUND     x206      1
 UP BOUND     x207      1
 UP BOUND     x211      1
 UP BOUND     x213      1
 UP BOUND     x215      1
 UP BOUND     x221      1
 UP BOUND     x223      1
 UP BOUND     x228      1
 UP BOUND     x231      1
 UP BOUND     x234      1
 UP BOUND     x236      1
 UP BOUND     x237      1
 UP BOUND     x239      1
 UP BOUND     x242      1
 UP BOUND     x245      1
 UP BOUND     x246      1
 UP BOUND     x250      1
 UP BOUND     x256      1
 UP BOUND     x258      1
 UP BOUND     x259      1
 UP BOUND     x262      1
 UP BOUND     x265      1
 UP BOUND     x266      1
 UP BOUND     x267      1
 UP BOUND     x269      1
 UP BOUND     x275      1
 UP BOUND     x279      1
 UP BOUND     x289      1
 UP BOUND     x292      1
 UP BOUND     x294      1
 UP BOUND     x301      1
 UP BOUND     x302      1
 UP BOUND     x303      1
 UP BOUND     x306      1
 UP BOUND     x307      1
 UP BOUND     x308      1
 UP BOUND     x310      1
 UP BOUND     x311      1
 UP BOUND     x313      1
 UP BOUND     x323      1
 UP BOUND     x329      1
 UP BOUND     x330      1
 UP BOUND     x332      1
 UP BOUND     x334      1
 UP BOUND     x338      1
 UP BOUND     x340      1
 UP BOUND     x341      1
 UP BOUND     x343      1
 UP BOUND     x348      1
 UP BOUND     x350      1
 UP BOUND     x352      1
 UP BOUND     x353      1
 UP BOUND     x356      1
 UP BOUND     x357      1
 UP BOUND     x358      1
 UP BOUND     x362      1
 UP BOUND     x364      1
 UP BOUND     x367      1
 UP BOUND     x370      1
 UP BOUND     x371      1
 UP BOUND     x373      1
 UP BOUND     x374      1
 UP BOUND     x376      1
 UP BOUND     x378      1
 UP BOUND     x386      1
 UP BOUND     x387      1
 UP BOUND     x390      1
 UP BOUND     x392      1
 UP BOUND     x397      1
 UP BOUND     x399      1
 UP BOUND     x400      1
ENDATA
